(declare-fun e () String)
(declare-fun c () String)
(declare-fun g () String)
(declare-fun d () String)
(declare-fun f () String)
(declare-fun a () String)
(assert (= (str.++ d "efe") (str.++ "ae" g e)))
(assert (= d (str.++ c "bd" g a "c")))
(assert (= (str.++ "ac" f) (str.++ a "h")))

(check-sat)
